NAME : mEgtspf.pid31042.gtsp.183904933.tour
COMMENT : Length = 183904933
COMMENT : Found by LKH [Keld Helsgaun] Fri Mar  7 02:52:37 2025
TYPE : TOUR
DIMENSION : 110
TOUR_SECTION
1
36
37
38
35
9
65
66
63
64
32
33
34
31
80
81
82
79
72
73
74
71
4
2
46
43
44
45
3
69
70
67
68
23
24
25
26
91
92
93
94
86
83
84
85
10
28
29
30
27
88
89
90
87
18
15
16
17
49
50
47
48
8
5
20
21
22
19
7
6
58
55
56
57
103
104
105
106
76
77
78
75
51
52
53
54
107
108
109
110
61
62
59
60
41
42
39
40
99
100
101
102
96
97
98
95
12
13
14
11
-1
EOF
